20  5
  0  76  1  85  2  14  3  71  4  42
  0  26  1  85  2  88  3  69  4  9
  0  36  1  22  2  14  3  3  4  10
  0  67  1  89  2  57  3  58  4  65
  0  90  1  82  2  53  3  59  4  46
  0  30  1  7  2  3  3  15  4  51
  0  9  1  9  2  14  3  53  4  82
  0  62  1  39  2  59  3  35  4  32
  0  5  1  43  2  51  3  57  4  30
  0  21  1  48  2  91  3  43  4  88
  0  95  1  30  2  71  3  48  4  73
  0  53  1  52  2  78  3  14  4  69
  0  77  1  11  2  53  3  24  4  45
  0  50  1  86  2  21  3  9  4  27
  0  11  1  72  2  18  3  75  4  88
  0  66  1  4  2  88  3  70  4  27
  0  57  1  72  2  66  3  93  4  1
  0  19  1  35  2  61  3  45  4  54
  0  62  1  42  2  83  3  53  4  15
  0  54  1  78  2  3  3  8  4  33
